n=588;
k_min=13;
k_max=13;
M=[| 80, 69, 71, 75, 74, 71, 80, 82, 81, 73, 74, 81, 80
 | 81, 69, 71, 75, 74, 71, 80, 83, 81, 73, 74, 82, 80
 | 81, 69, 71, 75, 74, 71, 80, 83, 81, 73, 74, 82, 80
 | 81, 69, 71, 75, 74, 71, 80, 83, 81, 73, 74, 82, 80
 | 82, 70, 71, 75, 74, 71, 79, 83, 80, 73, 74, 82, 80
 | 82, 70, 71, 75, 74, 71, 79, 82, 80, 73, 74, 82, 80
 | 82, 70, 71, 75, 74, 71, 79, 83, 80, 73, 74, 82, 80
 | 83, 70, 72, 75, 74, 71, 79, 82, 80, 73, 74, 82, 79
 | 83, 70, 72, 75, 74, 71, 79, 82, 80, 73, 74, 82, 79
 | 83, 70, 72, 75, 74, 71, 79, 81, 80, 73, 74, 82, 79
 | 83, 70, 72, 75, 75, 71, 79, 81, 80, 74, 74, 82, 79
 | 82, 70, 72, 75, 75, 71, 79, 80, 80, 74, 74, 81, 79
 | 82, 70, 72, 75, 75, 71, 79, 80, 80, 74, 74, 81, 79
 | 83, 70, 72, 75, 75, 71, 79, 80, 80, 74, 74, 81, 79
 | 82, 70, 72, 75, 75, 71, 79, 79, 80, 74, 74, 81, 79
 | 82, 70, 72, 76, 75, 71, 79, 79, 81, 74, 74, 81, 79
 | 82, 70, 72, 76, 76, 71, 79, 78, 81, 74, 74, 81, 80
 | 82, 69, 72, 76, 76, 71, 79, 78, 81, 74, 74, 80, 80
 | 80, 69, 71, 75, 74, 71, 80, 83, 81, 73, 75, 81, 81
 | 80, 69, 71, 75, 74, 71, 80, 83, 81, 73, 74, 81, 80
 | 81, 69, 71, 75, 74, 71, 80, 83, 81, 73, 74, 81, 80
 | 81, 69, 71, 75, 74, 71, 80, 83, 81, 73, 74, 82, 80
 | 81, 69, 71, 75, 74, 71, 80, 83, 81, 73, 74, 81, 80
 | 82, 70, 71, 75, 74, 71, 80, 83, 81, 73, 74, 82, 80
 | 82, 70, 71, 75, 74, 71, 79, 83, 80, 73, 74, 81, 80
 | 82, 70, 71, 75, 74, 71, 79, 82, 80, 73, 74, 82, 80
 | 82, 70, 72, 75, 74, 71, 79, 83, 80, 73, 74, 81, 79
 | 83, 70, 72, 75, 74, 71, 79, 82, 80, 73, 74, 81, 79
 | 83, 70, 72, 75, 74, 71, 79, 82, 80, 73, 74, 81, 79
 | 83, 70, 72, 75, 74, 71, 79, 82, 80, 73, 74, 82, 79
 | 83, 70, 72, 75, 74, 71, 79, 82, 80, 73, 74, 82, 79
 | 83, 70, 72, 75, 75, 71, 79, 81, 80, 74, 74, 81, 79
 | 83, 70, 72, 75, 75, 71, 79, 81, 80, 74, 74, 81, 79
 | 83, 70, 72, 75, 75, 71, 79, 81, 80, 74, 74, 81, 79
 | 83, 70, 72, 75, 75, 72, 79, 80, 80, 74, 74, 81, 79
 | 83, 70, 73, 75, 75, 72, 79, 80, 80, 74, 74, 81, 79
 | 82, 70, 72, 75, 75, 71, 79, 80, 80, 74, 74, 81, 79
 | 83, 70, 73, 75, 75, 72, 79, 80, 80, 74, 74, 81, 79
 | 82, 70, 73, 75, 75, 72, 79, 79, 80, 75, 74, 80, 79
 | 82, 70, 73, 76, 75, 72, 79, 79, 80, 75, 74, 80, 79
 | 82, 70, 73, 76, 76, 72, 79, 79, 80, 75, 74, 80, 79
 | 82, 70, 73, 76, 76, 72, 79, 78, 80, 75, 74, 80, 79
 | 83, 70, 72, 76, 76, 71, 79, 78, 81, 74, 74, 80, 79
 | 80, 70, 71, 75, 74, 71, 80, 83, 81, 73, 75, 81, 80
 | 81, 70, 71, 75, 74, 71, 80, 83, 80, 73, 74, 81, 80
 | 80, 70, 71, 75, 74, 71, 80, 83, 81, 73, 74, 81, 80
 | 81, 70, 71, 75, 74, 71, 80, 83, 81, 73, 74, 81, 80
 | 81, 70, 71, 75, 74, 71, 80, 83, 80, 73, 74, 81, 80
 | 81, 70, 71, 75, 74, 71, 79, 83, 80, 73, 74, 81, 80
 | 81, 70, 71, 75, 74, 71, 80, 83, 80, 73, 74, 81, 80
 | 82, 70, 72, 75, 74, 71, 79, 82, 80, 73, 74, 81, 80
 | 82, 70, 72, 75, 74, 71, 79, 83, 80, 73, 74, 81, 79
 | 82, 70, 72, 75, 74, 71, 79, 83, 80, 73, 74, 81, 79
 | 82, 70, 72, 75, 74, 71, 79, 83, 80, 73, 74, 81, 79
 | 83, 70, 72, 75, 74, 71, 79, 82, 80, 73, 74, 81, 79
 | 83, 70, 72, 75, 74, 71, 79, 82, 80, 73, 74, 81, 79
 | 83, 70, 72, 75, 74, 71, 79, 82, 80, 73, 74, 81, 79
 | 83, 70, 72, 75, 74, 71, 79, 82, 80, 73, 74, 81, 79
 | 83, 70, 72, 75, 74, 71, 79, 82, 80, 73, 74, 81, 79
 | 83, 70, 72, 75, 75, 71, 79, 81, 80, 74, 74, 81, 79
 | 83, 70, 72, 75, 75, 71, 79, 81, 80, 74, 74, 81, 79
 | 83, 70, 72, 75, 75, 72, 78, 81, 80, 74, 74, 81, 79
 | 83, 70, 72, 75, 75, 72, 78, 80, 80, 74, 74, 81, 79
 | 83, 70, 72, 75, 75, 71, 79, 81, 80, 74, 74, 81, 79
 | 83, 70, 72, 75, 75, 71, 79, 81, 80, 74, 74, 81, 79
 | 83, 70, 72, 75, 75, 71, 79, 81, 80, 74, 74, 81, 79
 | 83, 70, 72, 75, 75, 71, 79, 81, 80, 74, 74, 81, 79
 | 83, 70, 72, 75, 75, 71, 79, 81, 80, 74, 74, 81, 79
 | 83, 70, 73, 75, 75, 72, 78, 80, 80, 74, 74, 81, 79
 | 83, 70, 73, 75, 75, 72, 78, 80, 80, 74, 74, 81, 79
 | 83, 70, 73, 75, 75, 72, 78, 79, 80, 75, 74, 80, 79
 | 82, 70, 73, 75, 75, 72, 78, 79, 80, 75, 74, 80, 79
 | 82, 70, 73, 76, 76, 72, 79, 79, 80, 75, 74, 80, 79
 | 82, 70, 73, 76, 76, 72, 79, 78, 80, 75, 74, 80, 79
 | 82, 70, 73, 76, 76, 72, 79, 78, 80, 75, 74, 80, 79
 | 82, 70, 73, 76, 76, 72, 79, 78, 80, 75, 74, 80, 79
 | 83, 70, 72, 76, 76, 71, 79, 78, 81, 74, 74, 80, 79
 | 83, 70, 72, 75, 75, 71, 79, 81, 80, 74, 74, 81, 79
 | 83, 70, 72, 75, 75, 71, 79, 82, 80, 74, 74, 81, 79
 | 83, 70, 72, 75, 74, 71, 79, 82, 80, 73, 74, 81, 79
 | 83, 70, 72, 75, 74, 71, 79, 82, 80, 73, 74, 81, 79
 | 83, 70, 72, 75, 74, 71, 79, 82, 80, 73, 74, 81, 79
 | 83, 70, 72, 75, 74, 71, 79, 82, 80, 73, 74, 81, 79
 | 82, 70, 72, 75, 74, 71, 79, 82, 80, 73, 74, 81, 79
 | 82, 70, 72, 75, 75, 71, 79, 80, 80, 74, 74, 81, 79
 | 83, 70, 72, 75, 75, 71, 79, 80, 80, 74, 74, 81, 79
 | 83, 70, 73, 75, 75, 72, 79, 79, 80, 75, 74, 81, 79
 | 82, 70, 72, 75, 74, 71, 79, 83, 80, 73, 74, 81, 79
 | 82, 70, 72, 75, 74, 71, 79, 83, 80, 73, 74, 81, 79
 | 82, 70, 72, 75, 74, 71, 79, 83, 80, 73, 74, 81, 79
 | 81, 70, 72, 75, 74, 71, 79, 82, 80, 73, 74, 81, 80
 | 81, 70, 71, 75, 74, 71, 79, 83, 80, 73, 74, 81, 80
 | 81, 70, 71, 75, 74, 71, 80, 83, 80, 73, 74, 81, 80
 | 81, 70, 71, 75, 74, 71, 80, 83, 80, 73, 74, 81, 80
 | 81, 70, 71, 75, 74, 71, 80, 83, 80, 73, 74, 81, 80
 | 80, 70, 71, 75, 74, 71, 80, 83, 80, 73, 75, 81, 80
 | 80, 70, 71, 75, 74, 71, 80, 83, 80, 73, 75, 81, 80
 | 80, 70, 71, 75, 74, 71, 80, 83, 80, 73, 75, 81, 80
 | 83, 70, 72, 75, 75, 72, 79, 80, 80, 74, 74, 81, 79
 | 83, 70, 72, 75, 75, 71, 79, 80, 80, 74, 74, 81, 79
 | 83, 70, 72, 75, 75, 71, 79, 79, 80, 74, 74, 81, 79
 | 83, 70, 72, 75, 75, 71, 79, 80, 80, 74, 74, 81, 79
 | 83, 70, 72, 75, 75, 71, 79, 81, 80, 74, 74, 82, 79
 | 82, 70, 72, 75, 75, 71, 79, 81, 80, 74, 74, 81, 79
 | 82, 70, 72, 75, 75, 71, 79, 79, 80, 74, 74, 81, 79
 | 82, 70, 72, 76, 75, 71, 79, 79, 81, 74, 74, 81, 80
 | 82, 70, 73, 76, 76, 72, 79, 77, 80, 75, 74, 80, 79
 | 82, 70, 73, 76, 76, 72, 79, 78, 80, 75, 74, 80, 79
 | 81, 69, 71, 75, 74, 70, 80, 81, 82, 73, 74, 83, 81
 | 81, 69, 71, 75, 74, 71, 80, 82, 82, 73, 74, 83, 81
 | 81, 69, 71, 75, 74, 71, 80, 81, 81, 73, 74, 83, 80
 | 81, 69, 71, 75, 74, 71, 80, 82, 81, 73, 74, 83, 80
 | 82, 69, 71, 75, 74, 71, 80, 82, 81, 73, 74, 83, 80
 | 81, 69, 71, 75, 74, 71, 80, 81, 81, 73, 74, 83, 80
 | 81, 69, 71, 75, 75, 71, 80, 81, 82, 73, 74, 82, 80
 | 81, 69, 71, 75, 75, 71, 80, 80, 82, 73, 74, 83, 81
 | 80, 69, 71, 75, 74, 70, 80, 81, 82, 73, 74, 83, 81
 | 80, 69, 71, 75, 74, 70, 81, 81, 82, 73, 74, 83, 81
 | 81, 69, 71, 75, 74, 70, 80, 81, 82, 73, 74, 83, 81
 | 81, 69, 71, 75, 74, 71, 80, 81, 82, 73, 74, 83, 81
 | 81, 69, 71, 75, 74, 71, 80, 81, 82, 73, 74, 83, 80
 | 81, 69, 71, 75, 74, 71, 80, 81, 82, 73, 74, 83, 80
 | 81, 69, 71, 75, 74, 71, 80, 81, 82, 73, 74, 83, 80
 | 81, 69, 71, 75, 74, 71, 80, 81, 82, 73, 74, 83, 81
 | 81, 69, 71, 75, 74, 71, 80, 81, 82, 73, 74, 83, 80
 | 81, 69, 71, 75, 74, 71, 80, 81, 81, 73, 74, 83, 80
 | 81, 69, 71, 75, 74, 71, 80, 81, 82, 73, 74, 83, 80
 | 81, 69, 71, 75, 75, 71, 80, 80, 82, 73, 74, 82, 80
 | 81, 69, 71, 75, 75, 71, 80, 81, 82, 73, 74, 82, 80
 | 81, 69, 71, 75, 74, 71, 80, 81, 81, 73, 74, 83, 80
 | 81, 69, 71, 75, 74, 71, 80, 81, 81, 73, 74, 83, 80
 | 81, 69, 71, 75, 75, 71, 80, 81, 81, 73, 74, 82, 80
 | 80, 69, 71, 75, 74, 70, 81, 81, 82, 73, 74, 82, 82
 | 80, 68, 71, 75, 74, 70, 81, 81, 82, 73, 74, 82, 81
 | 80, 68, 71, 75, 75, 70, 81, 80, 83, 73, 74, 82, 81
 | 81, 68, 71, 76, 75, 70, 81, 80, 82, 73, 74, 82, 81
 | 80, 68, 71, 76, 75, 70, 81, 79, 82, 73, 74, 81, 82
 | 80, 68, 71, 76, 75, 70, 82, 79, 82, 73, 75, 81, 82
 | 79, 68, 71, 76, 75, 70, 82, 79, 82, 72, 75, 81, 83
 | 79, 68, 71, 76, 75, 70, 82, 80, 82, 72, 75, 81, 82
 | 79, 69, 71, 75, 74, 70, 81, 81, 82, 73, 74, 82, 82
 | 80, 68, 71, 75, 74, 70, 81, 80, 82, 73, 74, 82, 82
 | 80, 68, 71, 75, 75, 70, 81, 80, 83, 73, 74, 82, 82
 | 80, 68, 71, 75, 75, 70, 81, 80, 83, 73, 74, 82, 82
 | 80, 68, 71, 76, 75, 70, 81, 80, 83, 73, 74, 82, 82
 | 80, 68, 71, 76, 75, 70, 82, 80, 82, 73, 74, 82, 82
 | 79, 68, 71, 76, 75, 70, 82, 80, 83, 72, 74, 81, 82
 | 80, 68, 71, 76, 75, 70, 82, 80, 83, 73, 74, 81, 82
 | 80, 68, 71, 76, 75, 70, 82, 79, 82, 73, 74, 81, 82
 | 79, 68, 71, 76, 75, 70, 82, 79, 83, 73, 75, 81, 82
 | 80, 68, 71, 76, 75, 70, 82, 79, 82, 73, 75, 81, 82
 | 81, 68, 71, 76, 75, 70, 81, 79, 83, 73, 74, 81, 81
 | 80, 68, 71, 76, 75, 70, 81, 80, 82, 73, 74, 82, 82
 | 79, 68, 71, 76, 75, 70, 82, 80, 83, 72, 74, 81, 82
 | 79, 68, 71, 76, 75, 70, 82, 80, 82, 72, 74, 81, 82
 | 80, 68, 71, 76, 75, 70, 81, 79, 83, 73, 74, 81, 82
 | 80, 68, 71, 76, 75, 70, 81, 79, 82, 73, 74, 82, 81
 | 80, 68, 71, 75, 75, 70, 81, 80, 83, 73, 74, 82, 81
 | 80, 68, 71, 75, 74, 70, 81, 80, 83, 73, 74, 82, 81
 | 79, 69, 71, 76, 75, 71, 82, 79, 82, 73, 75, 80, 82
 | 79, 69, 71, 76, 75, 71, 82, 79, 82, 73, 75, 80, 82
 | 79, 69, 71, 77, 76, 71, 82, 78, 81, 73, 75, 80, 82
 | 79, 69, 71, 76, 75, 71, 83, 79, 82, 73, 75, 80, 82
 | 78, 69, 71, 76, 75, 71, 83, 79, 81, 73, 75, 80, 82
 | 78, 69, 71, 77, 75, 71, 83, 79, 81, 73, 76, 79, 81
 | 77, 70, 72, 77, 76, 72, 83, 78, 80, 73, 77, 78, 80
 | 77, 70, 72, 78, 76, 72, 82, 78, 80, 73, 77, 78, 80
 | 77, 70, 72, 78, 76, 72, 83, 77, 80, 74, 77, 78, 80
 | 78, 70, 72, 78, 77, 72, 82, 77, 80, 74, 77, 78, 80
 | 79, 69, 72, 77, 76, 71, 82, 77, 81, 74, 76, 79, 81
 | 79, 69, 71, 77, 76, 71, 82, 78, 81, 73, 76, 79, 81
 | 78, 69, 71, 77, 75, 71, 83, 78, 81, 73, 76, 79, 82
 | 78, 69, 71, 77, 75, 71, 83, 79, 81, 73, 76, 79, 81
 | 78, 70, 71, 77, 76, 72, 83, 78, 81, 73, 76, 79, 81
 | 78, 70, 72, 77, 76, 72, 83, 78, 80, 73, 76, 78, 81
 | 78, 69, 71, 77, 76, 72, 83, 78, 80, 73, 76, 79, 81
 | 78, 69, 71, 77, 76, 71, 83, 78, 81, 73, 76, 79, 81
 | 78, 69, 71, 77, 75, 71, 83, 78, 81, 73, 76, 79, 81
 | 78, 69, 71, 77, 75, 71, 83, 79, 81, 73, 75, 80, 82
 | 78, 69, 71, 77, 75, 71, 82, 79, 81, 73, 76, 79, 81
 | 78, 69, 71, 77, 76, 71, 83, 78, 81, 73, 76, 79, 81
 | 78, 69, 71, 77, 76, 71, 83, 78, 81, 73, 76, 79, 81
 | 79, 69, 71, 77, 75, 71, 83, 78, 81, 73, 75, 80, 82
 | 79, 69, 71, 77, 76, 71, 82, 78, 81, 73, 75, 79, 81
 | 79, 69, 71, 77, 76, 71, 83, 78, 81, 73, 76, 79, 81
 | 78, 69, 71, 77, 76, 71, 83, 78, 80, 73, 76, 79, 81
 | 78, 69, 71, 77, 75, 71, 83, 79, 81, 73, 75, 80, 82
 | 79, 69, 71, 76, 75, 71, 83, 79, 82, 73, 75, 80, 82
 | 78, 69, 71, 76, 75, 71, 83, 79, 82, 73, 75, 80, 82
 | 78, 69, 71, 76, 75, 71, 83, 79, 81, 73, 76, 80, 82
 | 78, 69, 71, 77, 75, 71, 83, 79, 81, 73, 76, 79, 81
 | 78, 69, 71, 77, 75, 71, 83, 79, 81, 73, 76, 79, 82
 | 78, 69, 71, 77, 75, 71, 83, 79, 81, 73, 76, 79, 81
 | 78, 69, 71, 76, 75, 71, 82, 79, 81, 73, 76, 80, 82
 | 78, 69, 71, 77, 75, 71, 83, 79, 81, 73, 75, 80, 82
 | 79, 69, 71, 77, 75, 71, 82, 78, 81, 73, 75, 80, 82
 | 78, 69, 71, 77, 75, 71, 82, 79, 81, 73, 76, 79, 82
 | 79, 68, 71, 76, 75, 71, 83, 79, 82, 73, 75, 80, 82
 | 79, 68, 71, 76, 75, 71, 83, 79, 82, 73, 75, 80, 82
 | 79, 69, 71, 77, 76, 71, 82, 78, 81, 73, 76, 79, 81
 | 78, 69, 72, 78, 76, 72, 83, 77, 80, 74, 76, 78, 81
 | 78, 69, 71, 77, 76, 71, 83, 78, 81, 73, 76, 79, 81
 | 78, 70, 72, 78, 76, 72, 83, 77, 80, 74, 76, 78, 81
 | 78, 70, 72, 78, 76, 72, 83, 78, 80, 73, 77, 78, 80
 | 77, 70, 72, 77, 76, 72, 83, 78, 80, 73, 77, 78, 81
 | 77, 70, 71, 77, 76, 72, 83, 78, 80, 73, 76, 79, 81
 | 77, 70, 71, 77, 76, 72, 82, 79, 80, 73, 76, 79, 81
 | 77, 70, 72, 78, 76, 72, 82, 78, 80, 73, 77, 78, 80
 | 78, 70, 72, 78, 76, 72, 83, 78, 80, 73, 76, 78, 81
 | 77, 70, 72, 78, 76, 72, 83, 77, 80, 74, 77, 78, 80
 | 77, 70, 72, 78, 76, 72, 83, 77, 80, 74, 77, 78, 80
 | 78, 70, 72, 78, 76, 72, 83, 77, 80, 74, 77, 78, 80
 | 78, 69, 72, 78, 76, 72, 83, 77, 80, 74, 76, 78, 80
 | 79, 69, 71, 77, 75, 71, 83, 79, 82, 73, 75, 80, 82
 | 79, 69, 71, 77, 76, 71, 82, 78, 81, 73, 75, 79, 82
 | 79, 69, 71, 77, 76, 71, 83, 78, 81, 73, 76, 79, 81
 | 78, 69, 71, 77, 76, 71, 83, 78, 81, 73, 76, 79, 81
 | 78, 69, 72, 78, 76, 71, 83, 77, 80, 74, 76, 79, 81
 | 78, 70, 72, 78, 76, 72, 83, 77, 80, 74, 76, 78, 80
 | 78, 70, 72, 78, 76, 72, 83, 77, 80, 74, 77, 78, 80
 | 78, 70, 72, 77, 76, 72, 83, 78, 80, 73, 77, 78, 81
 | 77, 70, 72, 77, 76, 72, 83, 78, 80, 73, 77, 78, 81
 | 78, 69, 71, 77, 75, 71, 83, 79, 81, 73, 76, 79, 82
 | 79, 69, 71, 77, 75, 71, 83, 78, 81, 73, 76, 79, 82
 | 78, 69, 71, 77, 76, 71, 83, 78, 81, 73, 76, 79, 81
 | 78, 69, 71, 77, 76, 71, 83, 78, 81, 73, 76, 79, 81
 | 78, 69, 71, 77, 76, 72, 83, 78, 80, 73, 76, 79, 81
 | 78, 69, 71, 77, 76, 71, 83, 78, 81, 73, 76, 79, 81
 | 78, 69, 71, 77, 76, 71, 83, 78, 81, 73, 76, 79, 81
 | 79, 69, 71, 77, 75, 71, 82, 78, 81, 73, 75, 80, 82
 | 79, 69, 71, 77, 75, 71, 82, 79, 82, 73, 75, 80, 82
 | 78, 69, 71, 77, 75, 71, 83, 79, 81, 73, 76, 79, 81
 | 73, 75, 76, 83, 82, 77, 77, 71, 74, 77, 82, 72, 74
 | 73, 75, 76, 83, 81, 77, 77, 71, 74, 77, 82, 72, 75
 | 73, 75, 76, 83, 81, 77, 77, 71, 74, 77, 81, 72, 75
 | 73, 75, 76, 83, 81, 77, 77, 71, 74, 78, 81, 72, 75
 | 74, 75, 76, 83, 81, 77, 77, 71, 74, 78, 81, 72, 75
 | 74, 74, 76, 82, 81, 77, 77, 71, 74, 78, 80, 73, 75
 | 73, 75, 76, 82, 81, 77, 77, 71, 74, 77, 82, 72, 75
 | 73, 75, 76, 82, 81, 77, 77, 71, 74, 77, 82, 72, 75
 | 73, 75, 76, 82, 81, 77, 77, 71, 74, 77, 81, 72, 75
 | 74, 74, 76, 83, 81, 77, 77, 71, 74, 78, 81, 72, 75
 | 74, 74, 76, 83, 81, 77, 77, 71, 74, 78, 81, 73, 75
 | 74, 74, 76, 83, 81, 77, 78, 71, 75, 78, 80, 73, 75
 | 74, 74, 76, 83, 81, 76, 78, 71, 75, 78, 80, 73, 75
 | 74, 75, 76, 82, 81, 77, 77, 71, 74, 78, 80, 72, 75
 | 74, 75, 76, 83, 82, 77, 77, 71, 74, 78, 81, 72, 74
 | 73, 75, 76, 83, 82, 77, 77, 71, 74, 78, 81, 72, 74
 | 73, 75, 76, 83, 82, 77, 77, 71, 74, 78, 82, 72, 74
 | 73, 75, 76, 83, 82, 77, 77, 71, 74, 77, 82, 72, 74
 | 73, 75, 76, 82, 81, 77, 78, 72, 74, 77, 82, 73, 75
 | 74, 74, 76, 82, 81, 77, 78, 72, 75, 77, 81, 73, 75
 | 73, 75, 76, 82, 82, 77, 77, 71, 74, 78, 81, 72, 74
 | 74, 74, 76, 82, 81, 77, 78, 71, 75, 77, 81, 73, 75
 | 73, 75, 76, 83, 82, 77, 77, 71, 74, 78, 81, 72, 74
 | 74, 74, 76, 83, 81, 76, 77, 71, 75, 78, 80, 73, 75
 | 74, 75, 77, 82, 82, 77, 77, 71, 74, 78, 80, 72, 75
 | 74, 74, 76, 83, 81, 77, 77, 71, 74, 78, 80, 73, 75
 | 73, 75, 76, 82, 82, 77, 77, 71, 74, 77, 82, 72, 75
 | 73, 75, 76, 83, 82, 77, 77, 71, 74, 77, 83, 72, 74
 | 73, 75, 76, 82, 82, 77, 77, 71, 74, 77, 82, 72, 75
 | 73, 75, 76, 83, 82, 77, 77, 71, 74, 77, 82, 72, 74
 | 73, 75, 76, 82, 82, 77, 77, 71, 74, 77, 83, 72, 74
 | 73, 75, 75, 82, 81, 77, 77, 72, 74, 77, 82, 73, 75
 | 73, 77, 76, 81, 82, 78, 76, 72, 74, 77, 81, 72, 74
 | 72, 77, 76, 81, 83, 78, 76, 71, 74, 77, 81, 72, 74
 | 72, 77, 77, 81, 83, 79, 76, 71, 73, 77, 81, 72, 74
 | 72, 77, 77, 81, 83, 79, 76, 71, 73, 78, 82, 72, 74
 | 72, 77, 77, 82, 83, 79, 76, 71, 73, 78, 82, 72, 74
 | 72, 77, 77, 82, 83, 79, 76, 71, 73, 78, 82, 71, 74
 | 72, 77, 77, 82, 83, 79, 76, 70, 73, 78, 82, 71, 73
 | 73, 77, 77, 82, 83, 79, 76, 70, 73, 79, 81, 71, 73
 | 73, 77, 77, 82, 83, 79, 76, 70, 73, 79, 81, 71, 73
 | 73, 76, 78, 82, 83, 78, 76, 70, 73, 79, 80, 72, 74
 | 73, 76, 78, 82, 82, 78, 76, 70, 74, 79, 80, 72, 74
 | 74, 76, 78, 81, 82, 78, 76, 70, 74, 80, 79, 72, 74
 | 74, 75, 78, 81, 83, 78, 76, 70, 74, 80, 78, 72, 74
 | 74, 76, 78, 81, 83, 78, 76, 70, 74, 80, 79, 72, 74
 | 73, 76, 78, 82, 82, 78, 76, 70, 74, 79, 80, 72, 74
 | 73, 76, 77, 82, 83, 78, 76, 70, 73, 79, 81, 71, 74
 | 73, 76, 77, 82, 82, 78, 76, 70, 73, 78, 81, 72, 74
 | 72, 76, 77, 82, 83, 78, 76, 71, 73, 78, 82, 72, 74
 | 72, 77, 76, 82, 83, 78, 76, 71, 73, 78, 82, 72, 74
 | 72, 77, 76, 81, 83, 78, 76, 71, 73, 77, 82, 72, 74
 | 73, 77, 76, 81, 82, 78, 76, 71, 74, 77, 81, 72, 74
 | 73, 77, 76, 81, 82, 78, 76, 72, 74, 77, 81, 72, 74
 | 72, 78, 77, 81, 83, 79, 76, 71, 73, 78, 81, 72, 74
 | 72, 78, 77, 81, 83, 79, 76, 71, 73, 78, 81, 72, 74
 | 72, 77, 77, 81, 82, 79, 76, 71, 73, 78, 81, 72, 74
 | 72, 77, 77, 81, 82, 79, 76, 71, 73, 78, 81, 72, 74
 | 72, 77, 77, 81, 82, 79, 76, 71, 73, 78, 81, 71, 73
 | 72, 77, 77, 81, 83, 79, 76, 70, 73, 78, 81, 71, 73
 | 72, 77, 77, 81, 83, 79, 76, 70, 73, 79, 81, 71, 73
 | 72, 77, 77, 81, 83, 79, 76, 70, 73, 79, 81, 71, 73
 | 73, 77, 78, 81, 82, 79, 76, 70, 73, 79, 81, 71, 73
 | 73, 77, 78, 81, 83, 79, 76, 70, 73, 79, 81, 71, 73
 | 73, 77, 78, 81, 83, 79, 76, 70, 73, 79, 80, 71, 73
 | 73, 76, 78, 81, 82, 79, 76, 70, 73, 80, 80, 72, 74
 | 73, 76, 78, 81, 82, 79, 76, 70, 73, 80, 80, 72, 73
 | 73, 76, 78, 81, 83, 78, 76, 70, 73, 80, 80, 72, 74
 | 73, 76, 78, 81, 83, 78, 76, 70, 73, 80, 79, 72, 73
 | 74, 76, 78, 81, 82, 78, 76, 70, 74, 80, 79, 72, 74
 | 74, 76, 78, 80, 83, 78, 76, 70, 74, 80, 78, 72, 74
 | 74, 76, 78, 81, 83, 78, 76, 70, 74, 80, 79, 72, 74
 | 73, 76, 78, 82, 82, 78, 76, 70, 73, 79, 80, 72, 74
 | 73, 77, 78, 81, 82, 79, 76, 70, 73, 80, 80, 71, 73
 | 73, 76, 77, 82, 83, 78, 76, 70, 73, 78, 82, 71, 74
 | 73, 76, 78, 82, 83, 79, 76, 70, 73, 79, 81, 71, 73
 | 73, 77, 78, 81, 82, 79, 76, 70, 73, 79, 80, 71, 73
 | 72, 77, 76, 81, 83, 78, 76, 71, 73, 78, 82, 72, 74
 | 72, 77, 77, 81, 82, 79, 76, 71, 73, 78, 82, 72, 74
 | 72, 77, 77, 82, 83, 79, 76, 71, 73, 78, 82, 72, 74
 | 72, 77, 77, 81, 83, 79, 76, 70, 73, 78, 81, 71, 73
 | 72, 78, 78, 81, 83, 80, 75, 70, 73, 79, 81, 71, 73
 | 72, 78, 78, 81, 83, 80, 75, 70, 73, 79, 81, 71, 73
 | 72, 78, 78, 80, 83, 80, 75, 70, 73, 79, 80, 71, 73
 | 72, 78, 78, 80, 82, 80, 75, 70, 73, 79, 80, 71, 73
 | 72, 78, 79, 80, 83, 80, 75, 70, 73, 80, 80, 71, 73
 | 72, 78, 79, 80, 83, 80, 75, 70, 73, 80, 80, 71, 73
 | 73, 78, 79, 80, 82, 80, 75, 70, 73, 80, 80, 71, 73
 | 72, 78, 79, 80, 83, 80, 75, 70, 73, 80, 80, 71, 73
 | 72, 79, 78, 80, 83, 80, 75, 70, 73, 79, 80, 71, 73
 | 72, 79, 78, 80, 83, 80, 75, 70, 73, 79, 80, 71, 73
 | 72, 79, 78, 80, 83, 80, 75, 70, 73, 79, 80, 71, 73
 | 72, 79, 79, 80, 82, 81, 75, 70, 72, 80, 80, 71, 73
 | 72, 79, 79, 80, 83, 81, 75, 70, 72, 80, 80, 71, 73
 | 72, 79, 79, 80, 82, 81, 75, 70, 72, 80, 80, 71, 73
 | 72, 78, 79, 80, 82, 81, 75, 69, 72, 81, 79, 71, 73
 | 72, 78, 79, 80, 82, 81, 75, 70, 72, 80, 80, 71, 73
 | 72, 79, 78, 80, 83, 80, 75, 70, 73, 79, 80, 71, 73
 | 72, 79, 78, 80, 83, 80, 75, 70, 73, 79, 80, 71, 73
 | 72, 79, 78, 80, 83, 80, 75, 70, 73, 79, 80, 71, 73
 | 72, 78, 78, 80, 83, 80, 75, 70, 73, 79, 80, 71, 73
 | 72, 79, 79, 80, 82, 81, 75, 70, 72, 79, 80, 71, 73
 | 73, 78, 79, 80, 82, 80, 75, 69, 73, 81, 79, 71, 73
 | 72, 78, 79, 80, 82, 80, 75, 70, 73, 80, 80, 71, 73
 | 73, 78, 79, 80, 82, 80, 75, 69, 73, 81, 79, 71, 73
 | 73, 78, 79, 80, 82, 80, 75, 69, 73, 81, 79, 71, 73
 | 73, 78, 80, 80, 83, 80, 75, 69, 72, 81, 79, 71, 73
 | 73, 78, 80, 80, 83, 80, 75, 69, 73, 81, 79, 71, 73
 | 73, 78, 79, 80, 83, 80, 75, 69, 73, 81, 79, 71, 73
 | 73, 78, 80, 80, 83, 80, 75, 69, 73, 81, 79, 71, 73
 | 72, 78, 79, 80, 82, 80, 75, 70, 73, 80, 80, 71, 73
 | 72, 79, 79, 80, 83, 81, 75, 70, 72, 80, 80, 71, 73
 | 72, 79, 79, 80, 83, 81, 75, 70, 72, 80, 80, 71, 73
 | 72, 78, 78, 80, 82, 80, 75, 70, 73, 79, 80, 71, 73
 | 72, 81, 81, 79, 81, 83, 74, 70, 72, 80, 79, 71, 72
 | 72, 81, 81, 79, 81, 83, 74, 70, 72, 80, 78, 71, 72
 | 72, 82, 81, 78, 81, 83, 74, 70, 72, 80, 78, 71, 72
 | 72, 82, 81, 78, 80, 83, 74, 70, 72, 80, 78, 71, 72
 | 72, 83, 81, 78, 80, 83, 74, 70, 72, 80, 78, 71, 72
 | 73, 83, 81, 78, 79, 82, 74, 70, 72, 80, 78, 71, 73
 | 73, 83, 81, 77, 79, 82, 74, 71, 73, 80, 77, 72, 73
 | 72, 81, 81, 79, 81, 83, 74, 70, 72, 80, 78, 71, 72
 | 72, 82, 81, 78, 81, 83, 74, 70, 72, 80, 78, 71, 72
 | 72, 82, 81, 78, 80, 83, 74, 70, 72, 80, 78, 71, 72
 | 72, 82, 81, 78, 80, 83, 74, 70, 72, 80, 78, 71, 72
 | 72, 82, 81, 78, 80, 83, 74, 70, 72, 80, 78, 71, 72
 | 72, 83, 81, 78, 80, 83, 74, 70, 72, 80, 78, 71, 72
 | 72, 83, 81, 78, 80, 83, 74, 70, 72, 80, 78, 71, 72
 | 72, 83, 81, 78, 80, 82, 74, 70, 72, 80, 78, 71, 72
 | 72, 83, 81, 78, 80, 83, 74, 70, 72, 80, 78, 71, 72
 | 72, 83, 81, 78, 80, 82, 74, 70, 72, 80, 78, 71, 73
 | 73, 83, 81, 78, 79, 82, 74, 70, 72, 80, 77, 71, 72
 | 73, 83, 81, 77, 79, 82, 74, 71, 73, 80, 77, 71, 73
 | 73, 83, 81, 78, 79, 82, 74, 71, 73, 80, 77, 71, 73
 | 73, 83, 81, 78, 79, 82, 74, 71, 73, 80, 77, 72, 73
 | 72, 82, 81, 78, 80, 83, 74, 70, 72, 80, 78, 71, 72
 | 72, 82, 81, 78, 80, 83, 74, 70, 72, 80, 78, 71, 72
 | 72, 81, 81, 78, 81, 83, 74, 70, 72, 80, 78, 71, 72
 | 72, 82, 81, 78, 80, 83, 74, 70, 72, 80, 78, 71, 72
 | 73, 83, 81, 77, 79, 82, 74, 71, 73, 80, 77, 72, 73
 | 73, 83, 81, 77, 79, 82, 74, 71, 73, 80, 77, 72, 73
 | 73, 83, 81, 77, 79, 82, 74, 71, 73, 80, 77, 72, 73
 | 73, 83, 81, 77, 79, 82, 74, 71, 73, 80, 77, 72, 73
 | 73, 83, 81, 78, 79, 82, 74, 70, 72, 80, 77, 71, 73
 | 73, 83, 81, 77, 79, 82, 74, 71, 73, 80, 77, 72, 73
 | 72, 83, 81, 78, 80, 83, 74, 70, 72, 80, 78, 71, 72
 | 72, 82, 81, 78, 80, 83, 74, 70, 72, 80, 78, 71, 72
 | 72, 82, 81, 78, 80, 83, 74, 70, 72, 80, 78, 71, 72
 | 72, 83, 81, 78, 80, 83, 74, 70, 72, 80, 78, 71, 72
 | 72, 83, 81, 78, 80, 83, 74, 70, 72, 80, 78, 71, 72
 | 72, 83, 81, 78, 80, 82, 74, 70, 72, 80, 78, 71, 72
 | 73, 83, 81, 78, 79, 82, 74, 70, 72, 80, 77, 71, 73
 | 73, 83, 81, 78, 79, 82, 74, 71, 73, 80, 77, 72, 73
 | 72, 83, 81, 78, 80, 82, 74, 70, 72, 80, 77, 71, 72
 | 72, 82, 80, 78, 80, 82, 74, 70, 72, 79, 78, 71, 73
 | 72, 82, 80, 78, 80, 82, 74, 70, 72, 79, 78, 71, 73
 | 72, 83, 80, 78, 80, 82, 74, 70, 72, 79, 78, 71, 73
 | 72, 82, 80, 78, 80, 82, 74, 70, 72, 79, 78, 71, 73
 | 72, 83, 80, 78, 80, 82, 74, 70, 72, 79, 78, 71, 73
 | 72, 83, 80, 78, 80, 82, 74, 71, 72, 79, 78, 71, 73
 | 73, 83, 80, 78, 79, 82, 74, 71, 73, 79, 78, 72, 73
 | 72, 83, 80, 78, 80, 82, 74, 71, 72, 79, 78, 71, 73
 | 73, 83, 80, 78, 79, 82, 74, 71, 73, 79, 78, 72, 73
 | 73, 83, 80, 78, 79, 82, 74, 71, 73, 79, 78, 72, 73
 | 73, 83, 80, 78, 80, 82, 74, 71, 73, 79, 78, 72, 73
 | 72, 83, 80, 78, 80, 82, 74, 70, 72, 79, 78, 71, 73
 | 72, 83, 80, 78, 80, 82, 74, 70, 72, 79, 78, 71, 73
 | 72, 83, 80, 78, 80, 82, 74, 71, 73, 79, 78, 71, 73
 | 73, 83, 80, 78, 80, 82, 74, 71, 73, 79, 78, 72, 73
 | 73, 83, 80, 78, 80, 82, 74, 71, 73, 79, 78, 72, 73
 | 73, 83, 80, 78, 79, 82, 74, 71, 73, 79, 78, 72, 73
 | 73, 83, 80, 78, 79, 82, 74, 71, 73, 79, 78, 72, 73
 | 72, 83, 80, 78, 80, 82, 74, 71, 72, 79, 78, 71, 73
 | 72, 83, 80, 78, 80, 82, 74, 71, 72, 79, 78, 71, 73
 | 72, 82, 80, 78, 80, 82, 74, 70, 72, 79, 78, 71, 73
 | 72, 82, 80, 78, 80, 82, 74, 70, 72, 79, 78, 71, 73
 | 72, 83, 80, 78, 80, 82, 74, 70, 72, 79, 78, 71, 73
 | 73, 83, 80, 78, 80, 82, 74, 71, 73, 79, 78, 72, 73
 | 73, 83, 80, 78, 80, 82, 74, 71, 73, 79, 78, 72, 73
 | 73, 83, 80, 78, 79, 82, 74, 71, 73, 79, 78, 72, 73
 | 72, 83, 80, 78, 80, 82, 74, 71, 73, 79, 78, 71, 73
 | 73, 83, 80, 78, 80, 82, 74, 71, 73, 79, 78, 71, 73
 | 72, 82, 82, 78, 80, 82, 74, 70, 72, 81, 78, 71, 72
 | 72, 82, 82, 78, 80, 82, 74, 70, 72, 80, 78, 71, 72
 | 73, 83, 82, 78, 80, 82, 74, 70, 72, 80, 77, 71, 72
 | 73, 83, 81, 77, 79, 82, 74, 70, 73, 80, 77, 71, 73
 | 73, 83, 81, 78, 79, 82, 74, 70, 72, 80, 77, 71, 72
 | 72, 83, 82, 78, 80, 82, 74, 70, 72, 80, 77, 71, 72
 | 72, 82, 82, 78, 80, 82, 74, 70, 72, 80, 77, 71, 72
 | 72, 82, 82, 78, 80, 82, 74, 70, 72, 81, 78, 71, 72
 | 73, 82, 82, 78, 80, 82, 74, 70, 72, 81, 77, 71, 72
 | 73, 83, 82, 78, 79, 82, 74, 70, 72, 80, 77, 71, 72
 | 73, 83, 81, 77, 79, 82, 74, 70, 72, 80, 77, 71, 73
 | 73, 83, 82, 78, 79, 82, 74, 70, 72, 80, 77, 71, 72
 | 72, 83, 82, 78, 80, 82, 74, 70, 72, 80, 77, 71, 72
 | 72, 82, 82, 78, 80, 82, 74, 70, 72, 81, 77, 71, 72
 | 72, 82, 82, 78, 80, 82, 74, 70, 72, 80, 78, 71, 72
 | 72, 82, 82, 78, 80, 83, 74, 70, 72, 80, 78, 71, 72
 | 72, 82, 82, 78, 80, 82, 74, 70, 72, 80, 77, 71, 72
 | 73, 83, 81, 78, 79, 82, 74, 70, 72, 80, 77, 71, 72
 | 73, 83, 81, 77, 79, 82, 74, 70, 72, 80, 77, 71, 72
 | 73, 83, 82, 78, 79, 82, 74, 70, 72, 80, 77, 71, 72
 | 72, 82, 82, 78, 80, 82, 74, 70, 72, 80, 77, 71, 72
 | 72, 82, 82, 78, 80, 82, 74, 70, 72, 81, 78, 71, 72
 | 73, 83, 82, 77, 79, 82, 74, 70, 72, 80, 77, 71, 72
 | 72, 82, 82, 78, 80, 82, 74, 70, 72, 80, 77, 71, 72
 | 73, 80, 82, 79, 81, 81, 74, 69, 72, 82, 78, 71, 72
 | 73, 80, 82, 78, 81, 81, 74, 69, 72, 82, 78, 71, 72
 | 73, 80, 82, 78, 81, 81, 74, 69, 72, 82, 77, 71, 72
 | 73, 80, 82, 78, 81, 81, 74, 69, 72, 82, 77, 71, 72
 | 73, 80, 82, 78, 81, 80, 74, 69, 73, 82, 77, 71, 72
 | 73, 79, 82, 78, 81, 80, 74, 70, 73, 83, 77, 71, 73
 | 74, 79, 82, 78, 81, 79, 75, 70, 73, 83, 77, 71, 73
 | 74, 78, 81, 79, 80, 79, 75, 70, 73, 83, 77, 72, 73
 | 74, 78, 81, 79, 81, 79, 75, 70, 73, 83, 77, 71, 73
 | 73, 79, 82, 79, 81, 80, 75, 70, 73, 83, 77, 71, 73
 | 73, 79, 82, 79, 81, 80, 74, 69, 73, 83, 77, 71, 72
 | 73, 79, 82, 79, 81, 80, 74, 69, 72, 82, 78, 71, 72
 | 73, 80, 82, 79, 81, 81, 74, 69, 72, 82, 78, 71, 72
 | 73, 79, 82, 78, 81, 80, 74, 69, 73, 83, 77, 71, 72
 | 74, 78, 81, 79, 81, 79, 75, 70, 73, 83, 77, 71, 73
 | 74, 78, 81, 78, 80, 79, 75, 70, 73, 83, 77, 72, 73
 | 74, 79, 82, 78, 81, 79, 75, 70, 73, 83, 77, 71, 73
 | 73, 79, 82, 78, 81, 80, 75, 70, 73, 83, 77, 71, 73
 | 73, 79, 82, 79, 81, 80, 74, 69, 73, 83, 77, 71, 72
 | 73, 79, 82, 79, 81, 80, 74, 69, 72, 83, 77, 71, 72
 | 74, 78, 81, 79, 80, 79, 75, 70, 73, 83, 77, 72, 73
 | 74, 77, 81, 79, 80, 78, 75, 70, 74, 83, 77, 72, 73
 | 74, 78, 81, 79, 81, 79, 75, 70, 73, 82, 77, 72, 73
 | 74, 78, 81, 79, 81, 79, 75, 70, 73, 83, 77, 72, 73
 | 73, 79, 82, 79, 81, 80, 75, 70, 73, 83, 77, 71, 73
 | 73, 79, 82, 79, 81, 80, 74, 69, 72, 82, 78, 71, 72
 | 74, 78, 81, 79, 80, 79, 75, 70, 73, 83, 77, 72, 73
 | 74, 78, 81, 79, 81, 79, 75, 70, 73, 83, 77, 71, 73
 | 73, 79, 81, 79, 81, 80, 75, 69, 73, 83, 78, 71, 73
 | 73, 79, 82, 79, 81, 80, 75, 70, 73, 83, 77, 71, 73
 | 74, 78, 81, 79, 81, 79, 75, 70, 73, 82, 77, 72, 73
 | 73, 78, 81, 79, 81, 79, 75, 70, 73, 82, 77, 71, 73
 | 73, 81, 83, 78, 80, 81, 74, 70, 72, 81, 77, 71, 72
 | 73, 81, 83, 78, 80, 81, 74, 70, 72, 82, 77, 71, 72
 | 73, 80, 83, 78, 80, 80, 74, 70, 72, 82, 77, 71, 72
 | 73, 79, 82, 78, 80, 80, 74, 70, 73, 83, 77, 71, 72
 | 74, 79, 82, 78, 80, 79, 75, 70, 73, 82, 77, 72, 73
 | 74, 78, 81, 78, 80, 79, 75, 70, 73, 83, 77, 72, 73
 | 75, 78, 81, 78, 80, 78, 75, 70, 74, 83, 77, 72, 73
 | 75, 77, 80, 78, 80, 78, 75, 71, 74, 82, 76, 73, 74
 | 75, 77, 80, 78, 80, 78, 75, 71, 74, 83, 76, 73, 74
 | 75, 78, 81, 78, 80, 78, 75, 71, 74, 83, 77, 72, 73
 | 74, 78, 81, 78, 80, 79, 75, 70, 74, 82, 77, 72, 73
 | 74, 79, 82, 78, 80, 79, 75, 70, 73, 83, 77, 72, 73
 | 74, 79, 82, 78, 80, 79, 75, 70, 73, 83, 77, 72, 73
 | 73, 79, 82, 78, 80, 80, 74, 70, 73, 83, 77, 71, 73
 | 73, 80, 83, 78, 80, 80, 74, 70, 73, 83, 77, 71, 72
 | 73, 80, 83, 78, 80, 81, 74, 70, 72, 82, 77, 71, 72
 | 73, 81, 83, 78, 80, 81, 74, 70, 72, 82, 77, 71, 72
 | 73, 81, 83, 78, 80, 81, 74, 70, 72, 81, 77, 71, 72
 | 73, 81, 83, 78, 80, 81, 74, 70, 72, 82, 77, 71, 72
 | 73, 81, 83, 78, 80, 81, 74, 70, 72, 82, 77, 71, 72
 | 73, 80, 83, 78, 80, 80, 74, 70, 73, 82, 77, 71, 72
 | 73, 80, 83, 78, 80, 80, 74, 70, 73, 83, 77, 71, 72
 | 73, 80, 83, 78, 80, 80, 74, 70, 73, 83, 77, 71, 73
 | 73, 80, 83, 78, 80, 80, 74, 70, 73, 83, 77, 71, 72
 | 73, 79, 82, 78, 80, 80, 74, 70, 73, 83, 77, 71, 73
 | 74, 79, 82, 78, 80, 79, 75, 70, 73, 83, 77, 72, 73
 | 73, 79, 82, 78, 80, 80, 74, 70, 73, 83, 77, 71, 73
 | 73, 79, 82, 78, 80, 80, 74, 70, 73, 83, 77, 72, 73
 | 74, 79, 82, 78, 80, 79, 74, 70, 73, 83, 77, 72, 73
 | 74, 79, 82, 78, 80, 79, 75, 70, 73, 83, 77, 72, 73
 | 74, 79, 82, 78, 80, 79, 75, 70, 73, 83, 77, 72, 73
 | 74, 78, 81, 78, 80, 79, 75, 70, 73, 83, 77, 72, 73
 | 74, 79, 82, 78, 80, 79, 75, 70, 73, 83, 77, 72, 73
 | 74, 79, 82, 78, 80, 79, 75, 70, 73, 83, 77, 72, 73
 | 74, 78, 81, 78, 80, 79, 75, 70, 74, 83, 77, 72, 73
 | 74, 78, 81, 78, 80, 78, 75, 71, 74, 83, 77, 72, 73
 | 75, 78, 81, 78, 80, 78, 75, 71, 74, 83, 76, 73, 74
 | 75, 77, 80, 78, 80, 78, 75, 71, 74, 83, 76, 73, 74
 | 75, 77, 80, 78, 80, 78, 75, 71, 74, 83, 76, 73, 74
 | 75, 77, 80, 78, 80, 78, 75, 71, 74, 83, 76, 73, 74
 | 75, 77, 80, 78, 80, 78, 75, 71, 74, 83, 76, 73, 74
 | 75, 77, 80, 78, 80, 77, 75, 71, 74, 82, 76, 73, 74
 | 76, 77, 80, 78, 79, 77, 76, 71, 75, 82, 76, 73, 74
 | 76, 77, 80, 78, 79, 77, 76, 71, 75, 82, 76, 73, 74
 | 75, 78, 81, 78, 79, 78, 75, 71, 74, 83, 76, 73, 74
 | 75, 78, 81, 78, 80, 78, 75, 71, 74, 83, 76, 73, 73
 | 74, 79, 82, 78, 80, 79, 75, 70, 73, 82, 77, 72, 73
 | 74, 79, 82, 78, 80, 79, 75, 70, 73, 83, 77, 72, 73
 | 73, 79, 82, 78, 80, 80, 74, 70, 73, 83, 77, 71, 73
 | 73, 81, 83, 78, 80, 81, 74, 70, 72, 81, 77, 71, 72
 | 73, 81, 83, 78, 80, 81, 74, 70, 72, 82, 77, 71, 72
 | 73, 80, 83, 78, 80, 81, 74, 70, 72, 82, 77, 71, 72
 | 73, 81, 83, 78, 80, 81, 74, 70, 72, 82, 77, 71, 72
 | 73, 81, 83, 78, 80, 81, 74, 70, 72, 82, 77, 71, 72
 | 73, 80, 83, 78, 80, 80, 74, 70, 73, 83, 77, 71, 72
 | 74, 79, 82, 78, 80, 79, 75, 70, 73, 83, 77, 72, 73
 | 74, 78, 81, 78, 80, 79, 75, 70, 73, 83, 77, 72, 73
 | 74, 78, 81, 78, 80, 79, 75, 70, 74, 82, 77, 72, 73
 | 74, 78, 81, 78, 80, 79, 75, 70, 74, 82, 77, 72, 73
 | 75, 77, 80, 78, 80, 78, 75, 71, 74, 82, 76, 73, 74
 | 75, 78, 81, 78, 80, 78, 75, 71, 74, 83, 77, 72, 73
 | 75, 77, 80, 78, 80, 77, 75, 71, 74, 82, 76, 73, 74
 | 75, 77, 80, 78, 79, 77, 75, 71, 74, 82, 76, 73, 74
 | 73, 81, 83, 78, 80, 81, 74, 70, 72, 81, 77, 71, 72
 | 73, 81, 83, 78, 80, 81, 74, 70, 72, 82, 77, 71, 72
 | 73, 81, 83, 78, 80, 81, 74, 70, 72, 81, 77, 71, 72
 | 73, 81, 83, 78, 80, 81, 74, 70, 72, 82, 77, 71, 72
 | 73, 81, 83, 78, 80, 81, 74, 70, 73, 82, 77, 71, 72
 | 73, 81, 83, 78, 80, 81, 74, 70, 73, 82, 77, 71, 72
 | 73, 81, 83, 78, 80, 81, 74, 70, 72, 82, 77, 71, 72
 | 73, 80, 83, 78, 80, 80, 74, 70, 73, 82, 77, 71, 72
 | 73, 80, 82, 78, 80, 80, 74, 70, 73, 83, 77, 71, 73
 | 73, 80, 82, 78, 80, 80, 74, 70, 73, 83, 77, 72, 73
 | 74, 79, 82, 78, 80, 80, 74, 70, 73, 83, 77, 72, 73
 | 74, 79, 82, 78, 80, 79, 75, 70, 73, 83, 77, 72, 73
 | 74, 79, 81, 78, 79, 79, 75, 71, 73, 83, 76, 72, 73
 | 75, 78, 81, 78, 79, 78, 75, 71, 74, 83, 76, 73, 73
 | 74, 78, 81, 78, 79, 79, 75, 71, 74, 83, 76, 72, 73
 | 74, 79, 82, 78, 80, 79, 75, 70, 73, 82, 77, 72, 73
 | 74, 79, 82, 78, 80, 79, 75, 70, 73, 83, 77, 72, 73
 | 73, 80, 82, 78, 80, 80, 74, 70, 73, 83, 77, 72, 73
 | 73, 80, 82, 78, 80, 80, 74, 70, 73, 82, 77, 72, 73
 | 73, 80, 82, 78, 80, 80, 74, 70, 73, 83, 77, 72, 73
 | 74, 79, 82, 78, 80, 79, 74, 70, 73, 83, 77, 72, 73
 | 74, 80, 82, 78, 79, 80, 74, 70, 73, 83, 77, 72, 73
 | 73, 80, 82, 78, 79, 80, 74, 70, 73, 83, 77, 72, 73
 | 73, 80, 82, 78, 79, 80, 74, 70, 73, 83, 77, 72, 73
 | 74, 79, 82, 78, 79, 79, 75, 70, 73, 83, 77, 72, 73
 | 74, 80, 82, 78, 79, 79, 74, 70, 73, 83, 77, 72, 73
 | 74, 79, 82, 78, 79, 79, 75, 70, 73, 83, 76, 72, 73
 | 74, 79, 81, 78, 79, 79, 75, 71, 74, 83, 76, 72, 73
 | 74, 78, 81, 78, 79, 79, 75, 71, 74, 83, 76, 72, 73
 | 75, 78, 81, 78, 79, 78, 75, 71, 74, 83, 76, 73, 73
 | 74, 79, 82, 78, 79, 79, 75, 71, 73, 83, 76, 72, 73
 | 74, 79, 82, 78, 79, 79, 75, 70, 73, 83, 76, 72, 73
 | 74, 79, 82, 78, 79, 79, 74, 70, 73, 83, 77, 72, 73
 | 74, 79, 82, 78, 80, 79, 74, 70, 73, 83, 77, 72, 73
 | 73, 80, 82, 78, 80, 80, 74, 70, 73, 83, 77, 72, 73
 | 74, 79, 81, 78, 79, 79, 75, 71, 74, 82, 76, 73, 73
 | 75, 78, 81, 78, 79, 78, 75, 71, 74, 83, 76, 73, 74
 | 75, 78, 81, 78, 79, 78, 75, 71, 74, 83, 76, 73, 74
 | 75, 78, 81, 78, 79, 78, 75, 71, 74, 82, 76, 73, 73
 | 75, 79, 81, 77, 79, 79, 75, 71, 74, 82, 76, 73, 73
 | 74, 79, 81, 78, 79, 79, 75, 71, 74, 82, 76, 72, 73
 | 74, 79, 82, 77, 79, 79, 75, 71, 73, 83, 76, 72, 73
 | 74, 79, 82, 77, 79, 79, 74, 70, 73, 83, 76, 72, 73
 | 74, 80, 82, 78, 79, 79, 74, 70, 73, 83, 77, 72, 73
 | 73, 80, 82, 78, 79, 80, 74, 70, 73, 83, 77, 72, 73
 | 74, 80, 82, 77, 79, 80, 74, 70, 73, 83, 77, 72, 73
 | 74, 80, 82, 77, 79, 80, 74, 70, 73, 83, 77, 72, 73
 | 74, 80, 82, 77, 79, 80, 74, 70, 73, 83, 76, 72, 73
 | 74, 80, 82, 77, 79, 79, 74, 70, 73, 83, 76, 72, 73
 | 74, 79, 82, 77, 79, 79, 74, 71, 73, 83, 76, 72, 73
 | 74, 79, 82, 77, 79, 79, 75, 71, 73, 83, 76, 72, 73
 | 74, 79, 81, 77, 79, 79, 75, 71, 74, 83, 76, 72, 73
 | 74, 79, 82, 77, 79, 79, 74, 71, 73, 83, 76, 72, 73
 | 74, 80, 82, 77, 79, 79, 74, 70, 73, 83, 76, 72, 73
 | 74, 80, 82, 77, 79, 80, 74, 70, 73, 83, 77, 72, 73 |];
 P=[8, 8, 8, 8, 8, 8, 8, 1, 1, 1, 1, 1, 1, 1, 1, 1, 1, 1, 8, 8, 8, 8, 8, 8, 8, 8, 8, 1, 1, 1, 1, 1, 1, 1, 1, 1, 1, 1, 1, 1, 1, 1, 1, 8, 8, 8, 8, 8, 8, 8, 8, 8, 8, 8, 1, 1, 1, 1, 1, 1, 1, 1, 1, 1, 1, 1, 1, 1, 1, 1, 1, 1, 1, 1, 1, 1, 1, 1, 1, 1, 1, 1, 8, 8, 1, 1, 1, 8, 8, 8, 8, 8, 8, 8, 8, 8, 8, 8, 1, 1, 1, 1, 1, 1, 1, 1, 1, 1, 12, 12, 12, 12, 12, 12, 12, 12, 12, 12, 12, 12, 12, 12, 12, 12, 12, 12, 12, 12, 12, 12, 12, 12, 9, 9, 9, 9, 9, 13, 13, 9, 9, 9, 9, 9, 9, 9, 9, 9, 9, 13, 13, 9, 9, 9, 9, 9, 9, 9, 9, 7, 7, 7, 7, 7, 7, 7, 7, 7, 7, 7, 7, 7, 7, 7, 7, 7, 7, 7, 7, 7, 7, 7, 7, 7, 7, 7, 7, 7, 7, 7, 7, 7, 7, 7, 7, 7, 7, 7, 7, 7, 7, 7, 7, 7, 7, 7, 7, 7, 7, 7, 7, 7, 7, 7, 7, 7, 7, 7, 7, 7, 7, 7, 7, 7, 7, 7, 7, 7, 7, 7, 7, 7, 4, 4, 4, 4, 4, 4, 4, 4, 4, 4, 4, 4, 4, 4, 4, 4, 4, 4, 4, 4, 4, 4, 4, 4, 4, 4, 4, 4, 4, 4, 11, 4, 5, 5, 5, 5, 5, 5, 5, 5, 5, 5, 5, 5, 5, 5, 5, 5, 4, 5, 5, 5, 5, 5, 5, 5, 5, 5, 5, 5, 5, 5, 5, 5, 5, 5, 5, 5, 5, 5, 5, 5, 5, 5, 5, 5, 5, 5, 5, 5, 5, 5, 5, 5, 5, 5, 5, 5, 5, 5, 5, 5, 5, 5, 5, 5, 5, 5, 5, 5, 5, 5, 5, 5, 5, 5, 5, 5, 5, 5, 5, 5, 5, 5, 6, 6, 6, 6, 2, 2, 2, 6, 6, 6, 6, 6, 6, 6, 2, 2, 2, 2, 2, 2, 2, 6, 6, 6, 6, 2, 2, 2, 2, 2, 2, 2, 6, 6, 6, 2, 2, 2, 2, 2, 2, 2, 2, 2, 2, 2, 2, 2, 2, 2, 2, 2, 2, 2, 2, 2, 2, 2, 2, 2, 2, 2, 2, 2, 2, 2, 2, 2, 6, 6, 2, 2, 2, 2, 6, 6, 6, 2, 2, 2, 6, 6, 6, 6, 6, 2, 2, 2, 6, 6, 2, 6, 10, 10, 10, 10, 10, 10, 10, 10, 10, 10, 10, 10, 10, 10, 10, 10, 10, 10, 10, 10, 10, 10, 10, 10, 10, 10, 10, 10, 10, 10, 10, 10, 3, 3, 3, 10, 10, 10, 10, 10, 10, 10, 10, 10, 10, 10, 3, 3, 3, 3, 3, 3, 3, 3, 10, 10, 10, 10, 10, 10, 10, 10, 10, 10, 10, 10, 10, 10, 10, 10, 10, 10, 10, 10, 10, 10, 10, 10, 10, 10, 10, 3, 3, 3, 3, 3, 3, 10, 10, 10, 10, 10, 10, 10, 10, 3, 3, 3, 3, 3, 3, 3, 3, 3, 10, 10, 10, 10, 10, 10, 10, 10, 10, 3, 10, 10, 10, 10, 10, 10, 10, 10, 10, 10, 10, 10, 10, 10, 10, 10, 10, 10, 10, 10, 10, 10, 10, 10, 10, 3, 10, 10, 10, 10, 10, 10, 10, 10, 10, 10 ];